** written by FreeCAD inp file writer for CalculiX,Abaqus meshes
** highest dimension mesh elements only.

** Nodes
*Node, NSET=Nall
1, 0, 0, 8
2, 0, 0, 0
3, 0, 1.5, 8
4, 0, 1.5, 0
5, 1, 0, 8
6, 1, 0, 0
7, 1, 1.5, 8
8, 1, 1.5, 0
9, 0, 0.25, 8
10, 0, 0.5, 8
11, 0, 0.75, 8
12, 0, 1, 8
13, 0, 1.25, 8
14, 0, 0.25, 0
15, 0, 0.5, 0
16, 0, 0.75, 0
17, 0, 1, 0
18, 0, 1.25, 0
19, 1, 0.25, 8
20, 1, 0.5, 8
21, 1, 0.75, 8
22, 1, 1, 8
23, 1, 1.25, 8
24, 1, 0.25, 0
25, 1, 0.5, 0
26, 1, 0.75, 0
27, 1, 1, 0
28, 1, 1.25, 0
29, 0.25, 0, 0
30, 0.5, 0, 0
31, 0.75, 0, 0
32, 0.25, 0, 8
33, 0.5, 0, 8
34, 0.75, 0, 8
35, 0.25, 1.5, 0
36, 0.5, 1.5, 0
37, 0.75, 1.5, 0
38, 0.25, 1.5, 8
39, 0.5, 1.5, 8
40, 0.75, 1.5, 8
41, 0.25, 0.25, 0
42, 0.25, 0.5, 0
43, 0.25, 0.75, 0
44, 0.25, 1, 0
45, 0.25, 1.25, 0
46, 0.75, 0.25, 0
47, 0.75, 0.5, 0
48, 0.75, 0.75, 0
49, 0.75, 1, 0
50, 0.75, 1.25, 0
51, 0.5, 0.25, 0
52, 0.5, 1.25, 0
53, 0.5, 1, 0
54, 0.5, 0.75, 0
55, 0.5, 0.5, 0
56, 0.25, 0.25, 8
57, 0.25, 0.5, 8
58, 0.25, 0.75, 8
59, 0.25, 1, 8
60, 0.25, 1.25, 8
61, 0.75, 0.25, 8
62, 0.75, 0.5, 8
63, 0.75, 0.75, 8
64, 0.75, 1, 8
65, 0.75, 1.25, 8
66, 0.5, 0.25, 8
67, 0.5, 1.25, 8
68, 0.5, 1, 8
69, 0.5, 0.75, 8
70, 0.5, 0.5, 8
71, 1, 1.25, 0.4
72, 1, 1.25, 0.8
73, 1, 1.25, 1.2
74, 1, 1.25, 1.6
75, 1, 1.25, 2
76, 1, 1.25, 2.4
77, 1, 1.25, 2.8
78, 1, 1.25, 3.2
79, 1, 1.25, 3.6
80, 1, 1.25, 4
81, 1, 1.25, 4.4
82, 1, 1.25, 4.8
83, 1, 1.25, 5.2
84, 1, 1.25, 5.6
85, 1, 1.25, 6
86, 1, 1.25, 6.4
87, 1, 1.25, 6.8
88, 1, 1.25, 7.2
89, 1, 1.25, 7.6
90, 0.75, 1.5, 0.4
91, 0.75, 1.5, 0.8
92, 0.75, 1.5, 1.2
93, 0.75, 1.5, 1.6
94, 0.75, 1.5, 2
95, 0.75, 1.5, 2.4
96, 0.75, 1.5, 2.8
97, 0.75, 1.5, 3.2
98, 0.75, 1.5, 3.6
99, 0.75, 1.5, 4
100, 0.75, 1.5, 4.4
101, 0.75, 1.5, 4.8
102, 0.75, 1.5, 5.2
103, 0.75, 1.5, 5.6
104, 0.75, 1.5, 6
105, 0.75, 1.5, 6.4
106, 0.75, 1.5, 6.8
107, 0.75, 1.5, 7.2
108, 0.75, 1.5, 7.6
109, 0.75, 0.5, 0.4
110, 0.75, 0.5, 0.8
111, 0.75, 0.5, 1.2
112, 0.75, 0.5, 1.6
113, 0.75, 0.5, 2
114, 0.75, 0.5, 2.4
115, 0.75, 0.5, 2.8
116, 0.75, 0.5, 3.2
117, 0.75, 0.5, 3.6
118, 0.75, 0.5, 4
119, 0.75, 0.5, 4.4
120, 0.75, 0.5, 4.8
121, 0.75, 0.5, 5.2
122, 0.75, 0.5, 5.6
123, 0.75, 0.5, 6
124, 0.75, 0.5, 6.4
125, 0.75, 0.5, 6.8
126, 0.75, 0.5, 7.2
127, 0.75, 0.5, 7.6
128, 0, 1.25, 0.4
129, 0, 1.25, 0.8
130, 0, 1.25, 1.2
131, 0, 1.25, 1.6
132, 0, 1.25, 2
133, 0, 1.25, 2.4
134, 0, 1.25, 2.8
135, 0, 1.25, 3.2
136, 0, 1.25, 3.6
137, 0, 1.25, 4
138, 0, 1.25, 4.4
139, 0, 1.25, 4.8
140, 0, 1.25, 5.2
141, 0, 1.25, 5.6
142, 0, 1.25, 6
143, 0, 1.25, 6.4
144, 0, 1.25, 6.8
145, 0, 1.25, 7.2
146, 0, 1.25, 7.6
147, 1, 1, 0.4
148, 1, 1, 0.8
149, 1, 1, 1.2
150, 1, 1, 1.6
151, 1, 1, 2
152, 1, 1, 2.4
153, 1, 1, 2.8
154, 1, 1, 3.2
155, 1, 1, 3.6
156, 1, 1, 4
157, 1, 1, 4.4
158, 1, 1, 4.8
159, 1, 1, 5.2
160, 1, 1, 5.6
161, 1, 1, 6
162, 1, 1, 6.4
163, 1, 1, 6.8
164, 1, 1, 7.2
165, 1, 1, 7.6
166, 0.5, 1.5, 0.4
167, 0.5, 1.5, 0.8
168, 0.5, 1.5, 1.2
169, 0.5, 1.5, 1.6
170, 0.5, 1.5, 2
171, 0.5, 1.5, 2.4
172, 0.5, 1.5, 2.8
173, 0.5, 1.5, 3.2
174, 0.5, 1.5, 3.6
175, 0.5, 1.5, 4
176, 0.5, 1.5, 4.4
177, 0.5, 1.5, 4.8
178, 0.5, 1.5, 5.2
179, 0.5, 1.5, 5.6
180, 0.5, 1.5, 6
181, 0.5, 1.5, 6.4
182, 0.5, 1.5, 6.8
183, 0.5, 1.5, 7.2
184, 0.5, 1.5, 7.6
185, 0.75, 0.25, 0.4
186, 0.75, 0.25, 0.8
187, 0.75, 0.25, 1.2
188, 0.75, 0.25, 1.6
189, 0.75, 0.25, 2
190, 0.75, 0.25, 2.4
191, 0.75, 0.25, 2.8
192, 0.75, 0.25, 3.2
193, 0.75, 0.25, 3.6
194, 0.75, 0.25, 4
195, 0.75, 0.25, 4.4
196, 0.75, 0.25, 4.8
197, 0.75, 0.25, 5.2
198, 0.75, 0.25, 5.6
199, 0.75, 0.25, 6
200, 0.75, 0.25, 6.4
201, 0.75, 0.25, 6.8
202, 0.75, 0.25, 7.2
203, 0.75, 0.25, 7.6
204, 0, 1, 0.4
205, 0, 1, 0.8
206, 0, 1, 1.2
207, 0, 1, 1.6
208, 0, 1, 2
209, 0, 1, 2.4
210, 0, 1, 2.8
211, 0, 1, 3.2
212, 0, 1, 3.6
213, 0, 1, 4
214, 0, 1, 4.4
215, 0, 1, 4.8
216, 0, 1, 5.2
217, 0, 1, 5.6
218, 0, 1, 6
219, 0, 1, 6.4
220, 0, 1, 6.8
221, 0, 1, 7.2
222, 0, 1, 7.6
223, 0.5, 0.5, 0.4
224, 0.5, 0.5, 0.8
225, 0.5, 0.5, 1.2
226, 0.5, 0.5, 1.6
227, 0.5, 0.5, 2
228, 0.5, 0.5, 2.4
229, 0.5, 0.5, 2.8
230, 0.5, 0.5, 3.2
231, 0.5, 0.5, 3.6
232, 0.5, 0.5, 4
233, 0.5, 0.5, 4.4
234, 0.5, 0.5, 4.8
235, 0.5, 0.5, 5.2
236, 0.5, 0.5, 5.6
237, 0.5, 0.5, 6
238, 0.5, 0.5, 6.4
239, 0.5, 0.5, 6.8
240, 0.5, 0.5, 7.2
241, 0.5, 0.5, 7.6
242, 1, 1.5, 0.4
243, 1, 1.5, 0.8
244, 1, 1.5, 1.2
245, 1, 1.5, 1.6
246, 1, 1.5, 2
247, 1, 1.5, 2.4
248, 1, 1.5, 2.8
249, 1, 1.5, 3.2
250, 1, 1.5, 3.6
251, 1, 1.5, 4
252, 1, 1.5, 4.4
253, 1, 1.5, 4.8
254, 1, 1.5, 5.2
255, 1, 1.5, 5.6
256, 1, 1.5, 6
257, 1, 1.5, 6.4
258, 1, 1.5, 6.8
259, 1, 1.5, 7.2
260, 1, 1.5, 7.6
261, 1, 0.75, 0.4
262, 1, 0.75, 0.8
263, 1, 0.75, 1.2
264, 1, 0.75, 1.6
265, 1, 0.75, 2
266, 1, 0.75, 2.4
267, 1, 0.75, 2.8
268, 1, 0.75, 3.2
269, 1, 0.75, 3.6
270, 1, 0.75, 4
271, 1, 0.75, 4.4
272, 1, 0.75, 4.8
273, 1, 0.75, 5.2
274, 1, 0.75, 5.6
275, 1, 0.75, 6
276, 1, 0.75, 6.4
277, 1, 0.75, 6.8
278, 1, 0.75, 7.2
279, 1, 0.75, 7.6
280, 0.25, 1.5, 0.4
281, 0.25, 1.5, 0.8
282, 0.25, 1.5, 1.2
283, 0.25, 1.5, 1.6
284, 0.25, 1.5, 2
285, 0.25, 1.5, 2.4
286, 0.25, 1.5, 2.8
287, 0.25, 1.5, 3.2
288, 0.25, 1.5, 3.6
289, 0.25, 1.5, 4
290, 0.25, 1.5, 4.4
291, 0.25, 1.5, 4.8
292, 0.25, 1.5, 5.2
293, 0.25, 1.5, 5.6
294, 0.25, 1.5, 6
295, 0.25, 1.5, 6.4
296, 0.25, 1.5, 6.8
297, 0.25, 1.5, 7.2
298, 0.25, 1.5, 7.6
299, 0.25, 1.25, 0.4
300, 0.25, 1.25, 0.8
301, 0.25, 1.25, 1.2
302, 0.25, 1.25, 1.6
303, 0.25, 1.25, 2
304, 0.25, 1.25, 2.4
305, 0.25, 1.25, 2.8
306, 0.25, 1.25, 3.2
307, 0.25, 1.25, 3.6
308, 0.25, 1.25, 4
309, 0.25, 1.25, 4.4
310, 0.25, 1.25, 4.8
311, 0.25, 1.25, 5.2
312, 0.25, 1.25, 5.6
313, 0.25, 1.25, 6
314, 0.25, 1.25, 6.4
315, 0.25, 1.25, 6.8
316, 0.25, 1.25, 7.2
317, 0.25, 1.25, 7.6
318, 0, 0.75, 0.4
319, 0, 0.75, 0.8
320, 0, 0.75, 1.2
321, 0, 0.75, 1.6
322, 0, 0.75, 2
323, 0, 0.75, 2.4
324, 0, 0.75, 2.8
325, 0, 0.75, 3.2
326, 0, 0.75, 3.6
327, 0, 0.75, 4
328, 0, 0.75, 4.4
329, 0, 0.75, 4.8
330, 0, 0.75, 5.2
331, 0, 0.75, 5.6
332, 0, 0.75, 6
333, 0, 0.75, 6.4
334, 0, 0.75, 6.8
335, 0, 0.75, 7.2
336, 0, 0.75, 7.6
337, 0.5, 0.75, 0.4
338, 0.5, 0.75, 0.8
339, 0.5, 0.75, 1.2
340, 0.5, 0.75, 1.6
341, 0.5, 0.75, 2
342, 0.5, 0.75, 2.4
343, 0.5, 0.75, 2.8
344, 0.5, 0.75, 3.2
345, 0.5, 0.75, 3.6
346, 0.5, 0.75, 4
347, 0.5, 0.75, 4.4
348, 0.5, 0.75, 4.8
349, 0.5, 0.75, 5.2
350, 0.5, 0.75, 5.6
351, 0.5, 0.75, 6
352, 0.5, 0.75, 6.4
353, 0.5, 0.75, 6.8
354, 0.5, 0.75, 7.2
355, 0.5, 0.75, 7.6
356, 1, 0.5, 0.4
357, 1, 0.5, 0.8
358, 1, 0.5, 1.2
359, 1, 0.5, 1.6
360, 1, 0.5, 2
361, 1, 0.5, 2.4
362, 1, 0.5, 2.8
363, 1, 0.5, 3.2
364, 1, 0.5, 3.6
365, 1, 0.5, 4
366, 1, 0.5, 4.4
367, 1, 0.5, 4.8
368, 1, 0.5, 5.2
369, 1, 0.5, 5.6
370, 1, 0.5, 6
371, 1, 0.5, 6.4
372, 1, 0.5, 6.8
373, 1, 0.5, 7.2
374, 1, 0.5, 7.6
375, 0.25, 1, 0.4
376, 0.25, 1, 0.8
377, 0.25, 1, 1.2
378, 0.25, 1, 1.6
379, 0.25, 1, 2
380, 0.25, 1, 2.4
381, 0.25, 1, 2.8
382, 0.25, 1, 3.2
383, 0.25, 1, 3.6
384, 0.25, 1, 4
385, 0.25, 1, 4.4
386, 0.25, 1, 4.8
387, 0.25, 1, 5.2
388, 0.25, 1, 5.6
389, 0.25, 1, 6
390, 0.25, 1, 6.4
391, 0.25, 1, 6.8
392, 0.25, 1, 7.2
393, 0.25, 1, 7.6
394, 0, 0.5, 0.4
395, 0, 0.5, 0.8
396, 0, 0.5, 1.2
397, 0, 0.5, 1.6
398, 0, 0.5, 2
399, 0, 0.5, 2.4
400, 0, 0.5, 2.8
401, 0, 0.5, 3.2
402, 0, 0.5, 3.6
403, 0, 0.5, 4
404, 0, 0.5, 4.4
405, 0, 0.5, 4.8
406, 0, 0.5, 5.2
407, 0, 0.5, 5.6
408, 0, 0.5, 6
409, 0, 0.5, 6.4
410, 0, 0.5, 6.8
411, 0, 0.5, 7.2
412, 0, 0.5, 7.6
413, 0.5, 1, 0.4
414, 0.5, 1, 0.8
415, 0.5, 1, 1.2
416, 0.5, 1, 1.6
417, 0.5, 1, 2
418, 0.5, 1, 2.4
419, 0.5, 1, 2.8
420, 0.5, 1, 3.2
421, 0.5, 1, 3.6
422, 0.5, 1, 4
423, 0.5, 1, 4.4
424, 0.5, 1, 4.8
425, 0.5, 1, 5.2
426, 0.5, 1, 5.6
427, 0.5, 1, 6
428, 0.5, 1, 6.4
429, 0.5, 1, 6.8
430, 0.5, 1, 7.2
431, 0.5, 1, 7.6
432, 1, 0, 0.4
433, 1, 0, 0.8
434, 1, 0, 1.2
435, 1, 0, 1.6
436, 1, 0, 2
437, 1, 0, 2.4
438, 1, 0, 2.8
439, 1, 0, 3.2
440, 1, 0, 3.6
441, 1, 0, 4
442, 1, 0, 4.4
443, 1, 0, 4.8
444, 1, 0, 5.2
445, 1, 0, 5.6
446, 1, 0, 6
447, 1, 0, 6.4
448, 1, 0, 6.8
449, 1, 0, 7.2
450, 1, 0, 7.6
451, 1, 0.25, 0.4
452, 1, 0.25, 0.8
453, 1, 0.25, 1.2
454, 1, 0.25, 1.6
455, 1, 0.25, 2
456, 1, 0.25, 2.4
457, 1, 0.25, 2.8
458, 1, 0.25, 3.2
459, 1, 0.25, 3.6
460, 1, 0.25, 4
461, 1, 0.25, 4.4
462, 1, 0.25, 4.8
463, 1, 0.25, 5.2
464, 1, 0.25, 5.6
465, 1, 0.25, 6
466, 1, 0.25, 6.4
467, 1, 0.25, 6.8
468, 1, 0.25, 7.2
469, 1, 0.25, 7.6
470, 0.25, 0.75, 0.4
471, 0.25, 0.75, 0.8
472, 0.25, 0.75, 1.2
473, 0.25, 0.75, 1.6
474, 0.25, 0.75, 2
475, 0.25, 0.75, 2.4
476, 0.25, 0.75, 2.8
477, 0.25, 0.75, 3.2
478, 0.25, 0.75, 3.6
479, 0.25, 0.75, 4
480, 0.25, 0.75, 4.4
481, 0.25, 0.75, 4.8
482, 0.25, 0.75, 5.2
483, 0.25, 0.75, 5.6
484, 0.25, 0.75, 6
485, 0.25, 0.75, 6.4
486, 0.25, 0.75, 6.8
487, 0.25, 0.75, 7.2
488, 0.25, 0.75, 7.6
489, 0, 0.25, 0.4
490, 0, 0.25, 0.8
491, 0, 0.25, 1.2
492, 0, 0.25, 1.6
493, 0, 0.25, 2
494, 0, 0.25, 2.4
495, 0, 0.25, 2.8
496, 0, 0.25, 3.2
497, 0, 0.25, 3.6
498, 0, 0.25, 4
499, 0, 0.25, 4.4
500, 0, 0.25, 4.8
501, 0, 0.25, 5.2
502, 0, 0.25, 5.6
503, 0, 0.25, 6
504, 0, 0.25, 6.4
505, 0, 0.25, 6.8
506, 0, 0.25, 7.2
507, 0, 0.25, 7.6
508, 0.5, 1.25, 0.4
509, 0.5, 1.25, 0.8
510, 0.5, 1.25, 1.2
511, 0.5, 1.25, 1.6
512, 0.5, 1.25, 2
513, 0.5, 1.25, 2.4
514, 0.5, 1.25, 2.8
515, 0.5, 1.25, 3.2
516, 0.5, 1.25, 3.6
517, 0.5, 1.25, 4
518, 0.5, 1.25, 4.4
519, 0.5, 1.25, 4.8
520, 0.5, 1.25, 5.2
521, 0.5, 1.25, 5.6
522, 0.5, 1.25, 6
523, 0.5, 1.25, 6.4
524, 0.5, 1.25, 6.8
525, 0.5, 1.25, 7.2
526, 0.5, 1.25, 7.6
527, 0.25, 0.5, 0.4
528, 0.25, 0.5, 0.8
529, 0.25, 0.5, 1.2
530, 0.25, 0.5, 1.6
531, 0.25, 0.5, 2
532, 0.25, 0.5, 2.4
533, 0.25, 0.5, 2.8
534, 0.25, 0.5, 3.2
535, 0.25, 0.5, 3.6
536, 0.25, 0.5, 4
537, 0.25, 0.5, 4.4
538, 0.25, 0.5, 4.8
539, 0.25, 0.5, 5.2
540, 0.25, 0.5, 5.6
541, 0.25, 0.5, 6
542, 0.25, 0.5, 6.4
543, 0.25, 0.5, 6.8
544, 0.25, 0.5, 7.2
545, 0.25, 0.5, 7.6
546, 0.5, 0.25, 0.4
547, 0.5, 0.25, 0.8
548, 0.5, 0.25, 1.2
549, 0.5, 0.25, 1.6
550, 0.5, 0.25, 2
551, 0.5, 0.25, 2.4
552, 0.5, 0.25, 2.8
553, 0.5, 0.25, 3.2
554, 0.5, 0.25, 3.6
555, 0.5, 0.25, 4
556, 0.5, 0.25, 4.4
557, 0.5, 0.25, 4.8
558, 0.5, 0.25, 5.2
559, 0.5, 0.25, 5.6
560, 0.5, 0.25, 6
561, 0.5, 0.25, 6.4
562, 0.5, 0.25, 6.8
563, 0.5, 0.25, 7.2
564, 0.5, 0.25, 7.6
565, 0, 1.5, 0.4
566, 0, 1.5, 0.8
567, 0, 1.5, 1.2
568, 0, 1.5, 1.6
569, 0, 1.5, 2
570, 0, 1.5, 2.4
571, 0, 1.5, 2.8
572, 0, 1.5, 3.2
573, 0, 1.5, 3.6
574, 0, 1.5, 4
575, 0, 1.5, 4.4
576, 0, 1.5, 4.8
577, 0, 1.5, 5.2
578, 0, 1.5, 5.6
579, 0, 1.5, 6
580, 0, 1.5, 6.4
581, 0, 1.5, 6.8
582, 0, 1.5, 7.2
583, 0, 1.5, 7.6
584, 0.75, 0, 0.4
585, 0.75, 0, 0.8
586, 0.75, 0, 1.2
587, 0.75, 0, 1.6
588, 0.75, 0, 2
589, 0.75, 0, 2.4
590, 0.75, 0, 2.8
591, 0.75, 0, 3.2
592, 0.75, 0, 3.6
593, 0.75, 0, 4
594, 0.75, 0, 4.4
595, 0.75, 0, 4.8
596, 0.75, 0, 5.2
597, 0.75, 0, 5.6
598, 0.75, 0, 6
599, 0.75, 0, 6.4
600, 0.75, 0, 6.8
601, 0.75, 0, 7.2
602, 0.75, 0, 7.6
603, 0.25, 0.25, 0.4
604, 0.25, 0.25, 0.8
605, 0.25, 0.25, 1.2
606, 0.25, 0.25, 1.6
607, 0.25, 0.25, 2
608, 0.25, 0.25, 2.4
609, 0.25, 0.25, 2.8
610, 0.25, 0.25, 3.2
611, 0.25, 0.25, 3.6
612, 0.25, 0.25, 4
613, 0.25, 0.25, 4.4
614, 0.25, 0.25, 4.8
615, 0.25, 0.25, 5.2
616, 0.25, 0.25, 5.6
617, 0.25, 0.25, 6
618, 0.25, 0.25, 6.4
619, 0.25, 0.25, 6.8
620, 0.25, 0.25, 7.2
621, 0.25, 0.25, 7.6
622, 0.75, 1.25, 0.4
623, 0.75, 1.25, 0.8
624, 0.75, 1.25, 1.2
625, 0.75, 1.25, 1.6
626, 0.75, 1.25, 2
627, 0.75, 1.25, 2.4
628, 0.75, 1.25, 2.8
629, 0.75, 1.25, 3.2
630, 0.75, 1.25, 3.6
631, 0.75, 1.25, 4
632, 0.75, 1.25, 4.4
633, 0.75, 1.25, 4.8
634, 0.75, 1.25, 5.2
635, 0.75, 1.25, 5.6
636, 0.75, 1.25, 6
637, 0.75, 1.25, 6.4
638, 0.75, 1.25, 6.8
639, 0.75, 1.25, 7.2
640, 0.75, 1.25, 7.6
641, 0.5, 0, 0.4
642, 0.5, 0, 0.8
643, 0.5, 0, 1.2
644, 0.5, 0, 1.6
645, 0.5, 0, 2
646, 0.5, 0, 2.4
647, 0.5, 0, 2.8
648, 0.5, 0, 3.2
649, 0.5, 0, 3.6
650, 0.5, 0, 4
651, 0.5, 0, 4.4
652, 0.5, 0, 4.8
653, 0.5, 0, 5.2
654, 0.5, 0, 5.6
655, 0.5, 0, 6
656, 0.5, 0, 6.4
657, 0.5, 0, 6.8
658, 0.5, 0, 7.2
659, 0.5, 0, 7.6
660, 0.75, 1, 0.4
661, 0.75, 1, 0.8
662, 0.75, 1, 1.2
663, 0.75, 1, 1.6
664, 0.75, 1, 2
665, 0.75, 1, 2.4
666, 0.75, 1, 2.8
667, 0.75, 1, 3.2
668, 0.75, 1, 3.6
669, 0.75, 1, 4
670, 0.75, 1, 4.4
671, 0.75, 1, 4.8
672, 0.75, 1, 5.2
673, 0.75, 1, 5.6
674, 0.75, 1, 6
675, 0.75, 1, 6.4
676, 0.75, 1, 6.8
677, 0.75, 1, 7.2
678, 0.75, 1, 7.6
679, 0, 0, 0.4
680, 0, 0, 0.8
681, 0, 0, 1.2
682, 0, 0, 1.6
683, 0, 0, 2
684, 0, 0, 2.4
685, 0, 0, 2.8
686, 0, 0, 3.2
687, 0, 0, 3.6
688, 0, 0, 4
689, 0, 0, 4.4
690, 0, 0, 4.8
691, 0, 0, 5.2
692, 0, 0, 5.6
693, 0, 0, 6
694, 0, 0, 6.4
695, 0, 0, 6.8
696, 0, 0, 7.2
697, 0, 0, 7.6
698, 0.25, 0, 0.4
699, 0.25, 0, 0.8
700, 0.25, 0, 1.2
701, 0.25, 0, 1.6
702, 0.25, 0, 2
703, 0.25, 0, 2.4
704, 0.25, 0, 2.8
705, 0.25, 0, 3.2
706, 0.25, 0, 3.6
707, 0.25, 0, 4
708, 0.25, 0, 4.4
709, 0.25, 0, 4.8
710, 0.25, 0, 5.2
711, 0.25, 0, 5.6
712, 0.25, 0, 6
713, 0.25, 0, 6.4
714, 0.25, 0, 6.8
715, 0.25, 0, 7.2
716, 0.25, 0, 7.6
717, 0.75, 0.75, 0.4
718, 0.75, 0.75, 0.8
719, 0.75, 0.75, 1.2
720, 0.75, 0.75, 1.6
721, 0.75, 0.75, 2
722, 0.75, 0.75, 2.4
723, 0.75, 0.75, 2.8
724, 0.75, 0.75, 3.2
725, 0.75, 0.75, 3.6
726, 0.75, 0.75, 4
727, 0.75, 0.75, 4.4
728, 0.75, 0.75, 4.8
729, 0.75, 0.75, 5.2
730, 0.75, 0.75, 5.6
731, 0.75, 0.75, 6
732, 0.75, 0.75, 6.4
733, 0.75, 0.75, 6.8
734, 0.75, 0.75, 7.2
735, 0.75, 0.75, 7.6


** Volume elements
*Element, TYPE=C3D8R, ELSET=Evolumes
569, 68, 67, 65, 64, 431, 526, 640, 678
570, 431, 526, 640, 678, 430, 525, 639, 677
571, 430, 525, 639, 677, 429, 524, 638, 676
572, 429, 524, 638, 676, 428, 523, 637, 675
573, 428, 523, 637, 675, 427, 522, 636, 674
574, 427, 522, 636, 674, 426, 521, 635, 673
575, 426, 521, 635, 673, 425, 520, 634, 672
576, 425, 520, 634, 672, 424, 519, 633, 671
577, 424, 519, 633, 671, 423, 518, 632, 670
578, 423, 518, 632, 670, 422, 517, 631, 669
579, 422, 517, 631, 669, 421, 516, 630, 668
580, 421, 516, 630, 668, 420, 515, 629, 667
581, 420, 515, 629, 667, 419, 514, 628, 666
582, 419, 514, 628, 666, 418, 513, 627, 665
583, 418, 513, 627, 665, 417, 512, 626, 664
584, 417, 512, 626, 664, 416, 511, 625, 663
585, 416, 511, 625, 663, 415, 510, 624, 662
586, 415, 510, 624, 662, 414, 509, 623, 661
587, 414, 509, 623, 661, 413, 508, 622, 660
588, 413, 508, 622, 660, 53, 52, 50, 49
589, 69, 68, 64, 63, 355, 431, 678, 735
590, 355, 431, 678, 735, 354, 430, 677, 734
591, 354, 430, 677, 734, 353, 429, 676, 733
592, 353, 429, 676, 733, 352, 428, 675, 732
593, 489, 603, 698, 679, 14, 41, 29, 2
594, 490, 604, 699, 680, 489, 603, 698, 679
595, 491, 605, 700, 681, 490, 604, 699, 680
596, 492, 606, 701, 682, 491, 605, 700, 681
597, 493, 607, 702, 683, 492, 606, 701, 682
598, 494, 608, 703, 684, 493, 607, 702, 683
599, 495, 609, 704, 685, 494, 608, 703, 684
600, 496, 610, 705, 686, 495, 609, 704, 685
601, 497, 611, 706, 687, 496, 610, 705, 686
602, 498, 612, 707, 688, 497, 611, 706, 687
603, 499, 613, 708, 689, 498, 612, 707, 688
604, 500, 614, 709, 690, 499, 613, 708, 689
605, 501, 615, 710, 691, 500, 614, 709, 690
606, 502, 616, 711, 692, 501, 615, 710, 691
607, 503, 617, 712, 693, 502, 616, 711, 692
608, 504, 618, 713, 694, 503, 617, 712, 693
609, 505, 619, 714, 695, 504, 618, 713, 694
610, 506, 620, 715, 696, 505, 619, 714, 695
611, 507, 621, 716, 697, 506, 620, 715, 696
612, 9, 56, 32, 1, 507, 621, 716, 697
613, 280, 299, 128, 565, 35, 45, 18, 4
614, 281, 300, 129, 566, 280, 299, 128, 565
615, 282, 301, 130, 567, 281, 300, 129, 566
616, 283, 302, 131, 568, 282, 301, 130, 567
617, 284, 303, 132, 569, 283, 302, 131, 568
618, 285, 304, 133, 570, 284, 303, 132, 569
619, 286, 305, 134, 571, 285, 304, 133, 570
620, 287, 306, 135, 572, 286, 305, 134, 571
621, 288, 307, 136, 573, 287, 306, 135, 572
622, 289, 308, 137, 574, 288, 307, 136, 573
623, 290, 309, 138, 575, 289, 308, 137, 574
624, 291, 310, 139, 576, 290, 309, 138, 575
625, 292, 311, 140, 577, 291, 310, 139, 576
626, 293, 312, 141, 578, 292, 311, 140, 577
627, 294, 313, 142, 579, 293, 312, 141, 578
628, 295, 314, 143, 580, 294, 313, 142, 579
629, 296, 315, 144, 581, 295, 314, 143, 580
630, 297, 316, 145, 582, 296, 315, 144, 581
631, 298, 317, 146, 583, 297, 316, 145, 582
632, 38, 60, 13, 3, 298, 317, 146, 583
633, 584, 185, 451, 432, 31, 46, 24, 6
634, 585, 186, 452, 433, 584, 185, 451, 432
635, 586, 187, 453, 434, 585, 186, 452, 433
636, 587, 188, 454, 435, 586, 187, 453, 434
637, 588, 189, 455, 436, 587, 188, 454, 435
638, 589, 190, 456, 437, 588, 189, 455, 436
639, 590, 191, 457, 438, 589, 190, 456, 437
640, 591, 192, 458, 439, 590, 191, 457, 438
641, 592, 193, 459, 440, 591, 192, 458, 439
642, 593, 194, 460, 441, 592, 193, 459, 440
643, 594, 195, 461, 442, 593, 194, 460, 441
644, 595, 196, 462, 443, 594, 195, 461, 442
645, 596, 197, 463, 444, 595, 196, 462, 443
646, 597, 198, 464, 445, 596, 197, 463, 444
647, 598, 199, 465, 446, 597, 198, 464, 445
648, 599, 200, 466, 447, 598, 199, 465, 446
649, 600, 201, 467, 448, 599, 200, 466, 447
650, 601, 202, 468, 449, 600, 201, 467, 448
651, 602, 203, 469, 450, 601, 202, 468, 449
652, 34, 61, 19, 5, 602, 203, 469, 450
653, 71, 622, 90, 242, 28, 50, 37, 8
654, 72, 623, 91, 243, 71, 622, 90, 242
655, 73, 624, 92, 244, 72, 623, 91, 243
656, 74, 625, 93, 245, 73, 624, 92, 244
657, 75, 626, 94, 246, 74, 625, 93, 245
658, 76, 627, 95, 247, 75, 626, 94, 246
659, 77, 628, 96, 248, 76, 627, 95, 247
660, 78, 629, 97, 249, 77, 628, 96, 248
661, 79, 630, 98, 250, 78, 629, 97, 249
662, 80, 631, 99, 251, 79, 630, 98, 250
663, 81, 632, 100, 252, 80, 631, 99, 251
664, 82, 633, 101, 253, 81, 632, 100, 252
665, 83, 634, 102, 254, 82, 633, 101, 253
666, 84, 635, 103, 255, 83, 634, 102, 254
667, 85, 636, 104, 256, 84, 635, 103, 255
668, 86, 637, 105, 257, 85, 636, 104, 256
669, 87, 638, 106, 258, 86, 637, 105, 257
670, 88, 639, 107, 259, 87, 638, 106, 258
671, 89, 640, 108, 260, 88, 639, 107, 259
672, 23, 65, 40, 7, 89, 640, 108, 260
673, 394, 527, 603, 489, 15, 42, 41, 14
674, 395, 528, 604, 490, 394, 527, 603, 489
675, 396, 529, 605, 491, 395, 528, 604, 490
676, 397, 530, 606, 492, 396, 529, 605, 491
677, 398, 531, 607, 493, 397, 530, 606, 492
678, 399, 532, 608, 494, 398, 531, 607, 493
679, 400, 533, 609, 495, 399, 532, 608, 494
680, 401, 534, 610, 496, 400, 533, 609, 495
681, 402, 535, 611, 497, 401, 534, 610, 496
682, 403, 536, 612, 498, 402, 535, 611, 497
683, 404, 537, 613, 499, 403, 536, 612, 498
684, 405, 538, 614, 500, 404, 537, 613, 499
685, 406, 539, 615, 501, 405, 538, 614, 500
686, 407, 540, 616, 502, 406, 539, 615, 501
687, 408, 541, 617, 503, 407, 540, 616, 502
688, 409, 542, 618, 504, 408, 541, 617, 503
689, 410, 543, 619, 505, 409, 542, 618, 504
690, 411, 544, 620, 506, 410, 543, 619, 505
691, 412, 545, 621, 507, 411, 544, 620, 506
692, 10, 57, 56, 9, 412, 545, 621, 507
693, 318, 470, 527, 394, 16, 43, 42, 15
694, 319, 471, 528, 395, 318, 470, 527, 394
695, 320, 472, 529, 396, 319, 471, 528, 395
696, 321, 473, 530, 397, 320, 472, 529, 396
697, 322, 474, 531, 398, 321, 473, 530, 397
698, 323, 475, 532, 399, 322, 474, 531, 398
699, 324, 476, 533, 400, 323, 475, 532, 399
700, 325, 477, 534, 401, 324, 476, 533, 400
701, 326, 478, 535, 402, 325, 477, 534, 401
702, 327, 479, 536, 403, 326, 478, 535, 402
703, 328, 480, 537, 404, 327, 479, 536, 403
704, 329, 481, 538, 405, 328, 480, 537, 404
705, 330, 482, 539, 406, 329, 481, 538, 405
706, 331, 483, 540, 407, 330, 482, 539, 406
707, 332, 484, 541, 408, 331, 483, 540, 407
708, 333, 485, 542, 409, 332, 484, 541, 408
709, 334, 486, 543, 410, 333, 485, 542, 409
710, 335, 487, 544, 411, 334, 486, 543, 410
711, 336, 488, 545, 412, 335, 487, 544, 411
712, 11, 58, 57, 10, 336, 488, 545, 412
713, 204, 375, 470, 318, 17, 44, 43, 16
714, 205, 376, 471, 319, 204, 375, 470, 318
715, 206, 377, 472, 320, 205, 376, 471, 319
716, 207, 378, 473, 321, 206, 377, 472, 320
717, 208, 379, 474, 322, 207, 378, 473, 321
718, 209, 380, 475, 323, 208, 379, 474, 322
719, 210, 381, 476, 324, 209, 380, 475, 323
720, 211, 382, 477, 325, 210, 381, 476, 324
721, 212, 383, 478, 326, 211, 382, 477, 325
722, 213, 384, 479, 327, 212, 383, 478, 326
723, 214, 385, 480, 328, 213, 384, 479, 327
724, 215, 386, 481, 329, 214, 385, 480, 328
725, 216, 387, 482, 330, 215, 386, 481, 329
726, 217, 388, 483, 331, 216, 387, 482, 330
727, 218, 389, 484, 332, 217, 388, 483, 331
728, 219, 390, 485, 333, 218, 389, 484, 332
729, 220, 391, 486, 334, 219, 390, 485, 333
730, 221, 392, 487, 335, 220, 391, 486, 334
731, 222, 393, 488, 336, 221, 392, 487, 335
732, 12, 59, 58, 11, 222, 393, 488, 336
733, 128, 299, 375, 204, 18, 45, 44, 17
734, 129, 300, 376, 205, 128, 299, 375, 204
735, 130, 301, 377, 206, 129, 300, 376, 205
736, 131, 302, 378, 207, 130, 301, 377, 206
737, 132, 303, 379, 208, 131, 302, 378, 207
738, 133, 304, 380, 209, 132, 303, 379, 208
739, 134, 305, 381, 210, 133, 304, 380, 209
740, 135, 306, 382, 211, 134, 305, 381, 210
741, 136, 307, 383, 212, 135, 306, 382, 211
742, 137, 308, 384, 213, 136, 307, 383, 212
743, 138, 309, 385, 214, 137, 308, 384, 213
744, 139, 310, 386, 215, 138, 309, 385, 214
745, 140, 311, 387, 216, 139, 310, 386, 215
746, 141, 312, 388, 217, 140, 311, 387, 216
747, 142, 313, 389, 218, 141, 312, 388, 217
748, 143, 314, 390, 219, 142, 313, 389, 218
749, 144, 315, 391, 220, 143, 314, 390, 219
750, 145, 316, 392, 221, 144, 315, 391, 220
751, 146, 317, 393, 222, 145, 316, 392, 221
752, 13, 60, 59, 12, 146, 317, 393, 222
753, 185, 109, 356, 451, 46, 47, 25, 24
754, 186, 110, 357, 452, 185, 109, 356, 451
755, 187, 111, 358, 453, 186, 110, 357, 452
756, 188, 112, 359, 454, 187, 111, 358, 453
757, 189, 113, 360, 455, 188, 112, 359, 454
758, 190, 114, 361, 456, 189, 113, 360, 455
759, 191, 115, 362, 457, 190, 114, 361, 456
760, 192, 116, 363, 458, 191, 115, 362, 457
761, 193, 117, 364, 459, 192, 116, 363, 458
762, 194, 118, 365, 460, 193, 117, 364, 459
763, 195, 119, 366, 461, 194, 118, 365, 460
764, 196, 120, 367, 462, 195, 119, 366, 461
765, 197, 121, 368, 463, 196, 120, 367, 462
766, 198, 122, 369, 464, 197, 121, 368, 463
767, 199, 123, 370, 465, 198, 122, 369, 464
768, 200, 124, 371, 466, 199, 123, 370, 465
769, 201, 125, 372, 467, 200, 124, 371, 466
770, 202, 126, 373, 468, 201, 125, 372, 467
771, 203, 127, 374, 469, 202, 126, 373, 468
772, 61, 62, 20, 19, 203, 127, 374, 469
773, 109, 717, 261, 356, 47, 48, 26, 25
774, 110, 718, 262, 357, 109, 717, 261, 356
775, 111, 719, 263, 358, 110, 718, 262, 357
776, 112, 720, 264, 359, 111, 719, 263, 358
777, 113, 721, 265, 360, 112, 720, 264, 359
778, 114, 722, 266, 361, 113, 721, 265, 360
779, 115, 723, 267, 362, 114, 722, 266, 361
780, 116, 724, 268, 363, 115, 723, 267, 362
781, 117, 725, 269, 364, 116, 724, 268, 363
782, 118, 726, 270, 365, 117, 725, 269, 364
783, 119, 727, 271, 366, 118, 726, 270, 365
784, 120, 728, 272, 367, 119, 727, 271, 366
785, 121, 729, 273, 368, 120, 728, 272, 367
786, 122, 730, 274, 369, 121, 729, 273, 368
787, 123, 731, 275, 370, 122, 730, 274, 369
788, 124, 732, 276, 371, 123, 731, 275, 370
789, 125, 733, 277, 372, 124, 732, 276, 371
790, 126, 734, 278, 373, 125, 733, 277, 372
791, 127, 735, 279, 374, 126, 734, 278, 373
792, 62, 63, 21, 20, 127, 735, 279, 374
793, 717, 660, 147, 261, 48, 49, 27, 26
794, 718, 661, 148, 262, 717, 660, 147, 261
795, 719, 662, 149, 263, 718, 661, 148, 262
796, 720, 663, 150, 264, 719, 662, 149, 263
797, 721, 664, 151, 265, 720, 663, 150, 264
798, 722, 665, 152, 266, 721, 664, 151, 265
799, 723, 666, 153, 267, 722, 665, 152, 266
800, 724, 667, 154, 268, 723, 666, 153, 267
801, 725, 668, 155, 269, 724, 667, 154, 268
802, 726, 669, 156, 270, 725, 668, 155, 269
803, 727, 670, 157, 271, 726, 669, 156, 270
804, 728, 671, 158, 272, 727, 670, 157, 271
805, 729, 672, 159, 273, 728, 671, 158, 272
806, 730, 673, 160, 274, 729, 672, 159, 273
807, 731, 674, 161, 275, 730, 673, 160, 274
808, 732, 675, 162, 276, 731, 674, 161, 275
809, 733, 676, 163, 277, 732, 675, 162, 276
810, 734, 677, 164, 278, 733, 676, 163, 277
811, 735, 678, 165, 279, 734, 677, 164, 278
812, 63, 64, 22, 21, 735, 678, 165, 279
813, 660, 622, 71, 147, 49, 50, 28, 27
814, 661, 623, 72, 148, 660, 622, 71, 147
815, 662, 624, 73, 149, 661, 623, 72, 148
816, 663, 625, 74, 150, 662, 624, 73, 149
817, 664, 626, 75, 151, 663, 625, 74, 150
818, 665, 627, 76, 152, 664, 626, 75, 151
819, 666, 628, 77, 153, 665, 627, 76, 152
820, 667, 629, 78, 154, 666, 628, 77, 153
821, 668, 630, 79, 155, 667, 629, 78, 154
822, 669, 631, 80, 156, 668, 630, 79, 155
823, 670, 632, 81, 157, 669, 631, 80, 156
824, 671, 633, 82, 158, 670, 632, 81, 157
825, 672, 634, 83, 159, 671, 633, 82, 158
826, 673, 635, 84, 160, 672, 634, 83, 159
827, 674, 636, 85, 161, 673, 635, 84, 160
828, 675, 637, 86, 162, 674, 636, 85, 161
829, 676, 638, 87, 163, 675, 637, 86, 162
830, 677, 639, 88, 164, 676, 638, 87, 163
831, 678, 640, 89, 165, 677, 639, 88, 164
832, 64, 65, 23, 22, 678, 640, 89, 165
833, 603, 546, 641, 698, 41, 51, 30, 29
834, 604, 547, 642, 699, 603, 546, 641, 698
835, 605, 548, 643, 700, 604, 547, 642, 699
836, 606, 549, 644, 701, 605, 548, 643, 700
837, 607, 550, 645, 702, 606, 549, 644, 701
838, 608, 551, 646, 703, 607, 550, 645, 702
839, 609, 552, 647, 704, 608, 551, 646, 703
840, 610, 553, 648, 705, 609, 552, 647, 704
841, 611, 554, 649, 706, 610, 553, 648, 705
842, 612, 555, 650, 707, 611, 554, 649, 706
843, 613, 556, 651, 708, 612, 555, 650, 707
844, 614, 557, 652, 709, 613, 556, 651, 708
845, 615, 558, 653, 710, 614, 557, 652, 709
846, 616, 559, 654, 711, 615, 558, 653, 710
847, 617, 560, 655, 712, 616, 559, 654, 711
848, 618, 561, 656, 713, 617, 560, 655, 712
849, 619, 562, 657, 714, 618, 561, 656, 713
850, 620, 563, 658, 715, 619, 562, 657, 714
851, 621, 564, 659, 716, 620, 563, 658, 715
852, 56, 66, 33, 32, 621, 564, 659, 716
853, 546, 185, 584, 641, 51, 46, 31, 30
854, 547, 186, 585, 642, 546, 185, 584, 641
855, 548, 187, 586, 643, 547, 186, 585, 642
856, 549, 188, 587, 644, 548, 187, 586, 643
857, 550, 189, 588, 645, 549, 188, 587, 644
858, 551, 190, 589, 646, 550, 189, 588, 645
859, 552, 191, 590, 647, 551, 190, 589, 646
860, 553, 192, 591, 648, 552, 191, 590, 647
861, 554, 193, 592, 649, 553, 192, 591, 648
862, 555, 194, 593, 650, 554, 193, 592, 649
863, 556, 195, 594, 651, 555, 194, 593, 650
864, 557, 196, 595, 652, 556, 195, 594, 651
865, 558, 197, 596, 653, 557, 196, 595, 652
866, 559, 198, 597, 654, 558, 197, 596, 653
867, 560, 199, 598, 655, 559, 198, 597, 654
868, 561, 200, 599, 656, 560, 199, 598, 655
869, 562, 201, 600, 657, 561, 200, 599, 656
870, 563, 202, 601, 658, 562, 201, 600, 657
871, 564, 203, 602, 659, 563, 202, 601, 658
872, 66, 61, 34, 33, 564, 203, 602, 659
873, 166, 508, 299, 280, 36, 52, 45, 35
874, 167, 509, 300, 281, 166, 508, 299, 280
875, 168, 510, 301, 282, 167, 509, 300, 281
876, 169, 511, 302, 283, 168, 510, 301, 282
877, 170, 512, 303, 284, 169, 511, 302, 283
878, 171, 513, 304, 285, 170, 512, 303, 284
879, 172, 514, 305, 286, 171, 513, 304, 285
880, 173, 515, 306, 287, 172, 514, 305, 286
881, 174, 516, 307, 288, 173, 515, 306, 287
882, 175, 517, 308, 289, 174, 516, 307, 288
883, 176, 518, 309, 290, 175, 517, 308, 289
884, 177, 519, 310, 291, 176, 518, 309, 290
885, 178, 520, 311, 292, 177, 519, 310, 291
886, 179, 521, 312, 293, 178, 520, 311, 292
887, 180, 522, 313, 294, 179, 521, 312, 293
888, 181, 523, 314, 295, 180, 522, 313, 294
889, 182, 524, 315, 296, 181, 523, 314, 295
890, 183, 525, 316, 297, 182, 524, 315, 296
891, 184, 526, 317, 298, 183, 525, 316, 297
892, 39, 67, 60, 38, 184, 526, 317, 298
893, 90, 622, 508, 166, 37, 50, 52, 36
894, 91, 623, 509, 167, 90, 622, 508, 166
895, 92, 624, 510, 168, 91, 623, 509, 167
896, 93, 625, 511, 169, 92, 624, 510, 168
897, 94, 626, 512, 170, 93, 625, 511, 169
898, 95, 627, 513, 171, 94, 626, 512, 170
899, 96, 628, 514, 172, 95, 627, 513, 171
900, 97, 629, 515, 173, 96, 628, 514, 172
901, 98, 630, 516, 174, 97, 629, 515, 173
902, 99, 631, 517, 175, 98, 630, 516, 174
903, 100, 632, 518, 176, 99, 631, 517, 175
904, 101, 633, 519, 177, 100, 632, 518, 176
905, 102, 634, 520, 178, 101, 633, 519, 177
906, 103, 635, 521, 179, 102, 634, 520, 178
907, 104, 636, 522, 180, 103, 635, 521, 179
908, 105, 637, 523, 181, 104, 636, 522, 180
909, 106, 638, 524, 182, 105, 637, 523, 181
910, 107, 639, 525, 183, 106, 638, 524, 182
911, 108, 640, 526, 184, 107, 639, 525, 183
912, 40, 65, 67, 39, 108, 640, 526, 184
913, 527, 223, 546, 603, 42, 55, 51, 41
914, 528, 224, 547, 604, 527, 223, 546, 603
915, 529, 225, 548, 605, 528, 224, 547, 604
916, 530, 226, 549, 606, 529, 225, 548, 605
917, 531, 227, 550, 607, 530, 226, 549, 606
918, 532, 228, 551, 608, 531, 227, 550, 607
919, 533, 229, 552, 609, 532, 228, 551, 608
920, 534, 230, 553, 610, 533, 229, 552, 609
921, 535, 231, 554, 611, 534, 230, 553, 610
922, 536, 232, 555, 612, 535, 231, 554, 611
923, 537, 233, 556, 613, 536, 232, 555, 612
924, 538, 234, 557, 614, 537, 233, 556, 613
925, 539, 235, 558, 615, 538, 234, 557, 614
926, 540, 236, 559, 616, 539, 235, 558, 615
927, 541, 237, 560, 617, 540, 236, 559, 616
928, 542, 238, 561, 618, 541, 237, 560, 617
929, 543, 239, 562, 619, 542, 238, 561, 618
930, 544, 240, 563, 620, 543, 239, 562, 619
931, 545, 241, 564, 621, 544, 240, 563, 620
932, 57, 70, 66, 56, 545, 241, 564, 621
933, 470, 337, 223, 527, 43, 54, 55, 42
934, 471, 338, 224, 528, 470, 337, 223, 527
935, 472, 339, 225, 529, 471, 338, 224, 528
936, 473, 340, 226, 530, 472, 339, 225, 529
937, 474, 341, 227, 531, 473, 340, 226, 530
938, 475, 342, 228, 532, 474, 341, 227, 531
939, 476, 343, 229, 533, 475, 342, 228, 532
940, 477, 344, 230, 534, 476, 343, 229, 533
941, 478, 345, 231, 535, 477, 344, 230, 534
942, 479, 346, 232, 536, 478, 345, 231, 535
943, 480, 347, 233, 537, 479, 346, 232, 536
944, 481, 348, 234, 538, 480, 347, 233, 537
945, 482, 349, 235, 539, 481, 348, 234, 538
946, 483, 350, 236, 540, 482, 349, 235, 539
947, 484, 351, 237, 541, 483, 350, 236, 540
948, 485, 352, 238, 542, 484, 351, 237, 541
949, 486, 353, 239, 543, 485, 352, 238, 542
950, 487, 354, 240, 544, 486, 353, 239, 543
951, 488, 355, 241, 545, 487, 354, 240, 544
952, 58, 69, 70, 57, 488, 355, 241, 545
953, 375, 413, 337, 470, 44, 53, 54, 43
954, 376, 414, 338, 471, 375, 413, 337, 470
955, 377, 415, 339, 472, 376, 414, 338, 471
956, 378, 416, 340, 473, 377, 415, 339, 472
957, 379, 417, 341, 474, 378, 416, 340, 473
958, 380, 418, 342, 475, 379, 417, 341, 474
959, 381, 419, 343, 476, 380, 418, 342, 475
960, 382, 420, 344, 477, 381, 419, 343, 476
961, 383, 421, 345, 478, 382, 420, 344, 477
962, 384, 422, 346, 479, 383, 421, 345, 478
963, 385, 423, 347, 480, 384, 422, 346, 479
964, 386, 424, 348, 481, 385, 423, 347, 480
965, 387, 425, 349, 482, 386, 424, 348, 481
966, 388, 426, 350, 483, 387, 425, 349, 482
967, 389, 427, 351, 484, 388, 426, 350, 483
968, 390, 428, 352, 485, 389, 427, 351, 484
969, 391, 429, 353, 486, 390, 428, 352, 485
970, 392, 430, 354, 487, 391, 429, 353, 486
971, 393, 431, 355, 488, 392, 430, 354, 487
972, 59, 68, 69, 58, 393, 431, 355, 488
973, 299, 508, 413, 375, 45, 52, 53, 44
974, 300, 509, 414, 376, 299, 508, 413, 375
975, 301, 510, 415, 377, 300, 509, 414, 376
976, 302, 511, 416, 378, 301, 510, 415, 377
977, 303, 512, 417, 379, 302, 511, 416, 378
978, 304, 513, 418, 380, 303, 512, 417, 379
979, 305, 514, 419, 381, 304, 513, 418, 380
980, 306, 515, 420, 382, 305, 514, 419, 381
981, 307, 516, 421, 383, 306, 515, 420, 382
982, 308, 517, 422, 384, 307, 516, 421, 383
983, 309, 518, 423, 385, 308, 517, 422, 384
984, 310, 519, 424, 386, 309, 518, 423, 385
985, 311, 520, 425, 387, 310, 519, 424, 386
986, 312, 521, 426, 388, 311, 520, 425, 387
987, 313, 522, 427, 389, 312, 521, 426, 388
988, 314, 523, 428, 390, 313, 522, 427, 389
989, 315, 524, 429, 391, 314, 523, 428, 390
990, 316, 525, 430, 392, 315, 524, 429, 391
991, 317, 526, 431, 393, 316, 525, 430, 392
992, 60, 67, 68, 59, 317, 526, 431, 393
993, 546, 223, 109, 185, 51, 55, 47, 46
994, 547, 224, 110, 186, 546, 223, 109, 185
995, 548, 225, 111, 187, 547, 224, 110, 186
996, 549, 226, 112, 188, 548, 225, 111, 187
997, 550, 227, 113, 189, 549, 226, 112, 188
998, 551, 228, 114, 190, 550, 227, 113, 189
999, 552, 229, 115, 191, 551, 228, 114, 190
1000, 553, 230, 116, 192, 552, 229, 115, 191
1001, 554, 231, 117, 193, 553, 230, 116, 192
1002, 555, 232, 118, 194, 554, 231, 117, 193
1003, 556, 233, 119, 195, 555, 232, 118, 194
1004, 557, 234, 120, 196, 556, 233, 119, 195
1005, 558, 235, 121, 197, 557, 234, 120, 196
1006, 559, 236, 122, 198, 558, 235, 121, 197
1007, 560, 237, 123, 199, 559, 236, 122, 198
1008, 561, 238, 124, 200, 560, 237, 123, 199
1009, 562, 239, 125, 201, 561, 238, 124, 200
1010, 563, 240, 126, 202, 562, 239, 125, 201
1011, 564, 241, 127, 203, 563, 240, 126, 202
1012, 66, 70, 62, 61, 564, 241, 127, 203
1013, 223, 337, 717, 109, 55, 54, 48, 47
1014, 224, 338, 718, 110, 223, 337, 717, 109
1015, 225, 339, 719, 111, 224, 338, 718, 110
1016, 226, 340, 720, 112, 225, 339, 719, 111
1017, 227, 341, 721, 113, 226, 340, 720, 112
1018, 228, 342, 722, 114, 227, 341, 721, 113
1019, 229, 343, 723, 115, 228, 342, 722, 114
1020, 230, 344, 724, 116, 229, 343, 723, 115
1021, 231, 345, 725, 117, 230, 344, 724, 116
1022, 232, 346, 726, 118, 231, 345, 725, 117
1023, 233, 347, 727, 119, 232, 346, 726, 118
1024, 234, 348, 728, 120, 233, 347, 727, 119
1025, 235, 349, 729, 121, 234, 348, 728, 120
1026, 236, 350, 730, 122, 235, 349, 729, 121
1027, 237, 351, 731, 123, 236, 350, 730, 122
1028, 238, 352, 732, 124, 237, 351, 731, 123
1029, 239, 353, 733, 125, 238, 352, 732, 124
1030, 240, 354, 734, 126, 239, 353, 733, 125
1031, 241, 355, 735, 127, 240, 354, 734, 126
1032, 70, 69, 63, 62, 241, 355, 735, 127
1033, 337, 413, 660, 717, 54, 53, 49, 48
1034, 338, 414, 661, 718, 337, 413, 660, 717
1035, 339, 415, 662, 719, 338, 414, 661, 718
1036, 340, 416, 663, 720, 339, 415, 662, 719
1037, 341, 417, 664, 721, 340, 416, 663, 720
1038, 342, 418, 665, 722, 341, 417, 664, 721
1039, 343, 419, 666, 723, 342, 418, 665, 722
1040, 344, 420, 667, 724, 343, 419, 666, 723
1041, 345, 421, 668, 725, 344, 420, 667, 724
1042, 346, 422, 669, 726, 345, 421, 668, 725
1043, 347, 423, 670, 727, 346, 422, 669, 726
1044, 348, 424, 671, 728, 347, 423, 670, 727
1045, 349, 425, 672, 729, 348, 424, 671, 728
1046, 350, 426, 673, 730, 349, 425, 672, 729
1047, 351, 427, 674, 731, 350, 426, 673, 730
1048, 352, 428, 675, 732, 351, 427, 674, 731

** Define element set Eall
*ELSET, ELSET=Eall
Evolumes



***********************************************************
** Element sets for materials and FEM element type (solid, shell, beam, fluid)
*ELSET,ELSET=MechanicalMaterialSolid
Evolumes

***********************************************************
** constraints fixed node sets
** Fixed
*NSET,NSET=Fixed
2,
4,
6,
8,
14,
15,
16,
17,
18,
24,
25,
26,
27,
28,
29,
30,
31,
35,
36,
37,
41,
42,
43,
44,
45,
46,
47,
48,
49,
50,
51,
52,
53,
54,
55,

** Physical constants for SI(mm) unit system with Kelvins
*PHYSICAL CONSTANTS, ABSOLUTE ZERO=0, STEFAN BOLTZMANN=5.670374419e-11

***********************************************************
** Materials
** see information about units at file end
** FreeCAD material name: CalculiX-Steel
** MechanicalMaterial
*MATERIAL, NAME=MechanicalMaterial
*ELASTIC
210000,0.3

***********************************************************
** Sections
*SOLID SECTION, ELSET=MechanicalMaterialSolid, MATERIAL=MechanicalMaterial

***********************************************************
** At least one step is needed to run an CalculiX analysis of FreeCAD
*STEP
*BUCKLE
10,0.01

***********************************************************
** Fixed Constraints
** Fixed
*BOUNDARY
Fixed,1
Fixed,2
Fixed,3


***********************************************************
** constraints force node loads
** Force
*CLOAD
** node loads on shape: Beam:Face6
1,3,-0.21875
3,3,-0.21875
5,3,-0.21875
7,3,-0.21875
9,3,-0.4375
10,3,-0.4375
11,3,-0.4375
12,3,-0.4375
13,3,-0.4375
19,3,-0.4375
20,3,-0.4375
21,3,-0.4375
22,3,-0.4375
23,3,-0.4375
32,3,-0.4375
33,3,-0.4375
34,3,-0.4375
38,3,-0.4375
39,3,-0.4375
40,3,-0.4375
56,3,-0.8749999999999
57,3,-0.875
58,3,-0.875
59,3,-0.875
60,3,-0.875
61,3,-0.875
62,3,-0.875
63,3,-0.875
64,3,-0.875
65,3,-0.8750000000001
66,3,-0.8749999999999
67,3,-0.8750000000001
68,3,-0.875
69,3,-0.875
70,3,-0.875



***********************************************************
** Outputs --> frd file
*NODE FILE
U
*EL FILE
S, E
** outputs --> dat file
** reaction forces for Constraint fixed
*NODE PRINT, NSET=Fixed, TOTALS=ONLY
RF

*OUTPUT, FREQUENCY=1
***********************************************************
*END STEP

***********************************************************
** CalculiX Input file
**   written by    --> FreeCAD 26.3.0
**   written on    --> Fri Jul 31 10:05:37 2026
**   file name     -->
**   analysis name --> Analysis
**
**
***********************************************************
**  About units:
**  See ccx manual, ccx does not know about any unit.
**  Golden rule: The user must make sure that the numbers they provide have consistent units.
**  The user is the FreeCAD calculix writer module ;-)
**
**  The unit system which is used at Guido Dhondt's company: mm, N, s, K
**  Since Length and Mass are connected by Force, if Length is mm the Mass is in t to get N
**  The following units are used to write to inp file:
**
**  Length: mm (this includes the mesh geometry)
**  Mass: t
**  TimeSpan: s
**  Temperature: K
**
**  This leads to:
**  Force: N
**  Pressure: N/mm^2 == MPa (Young's Modulus has unit Pressure)
**  Density: t/mm^3
**  Gravity: mm/s^2
**  Thermal conductivity: t*mm/K/s^3 == as W/m/K == kW/mm/K
**  Specific Heat: mm^2/s^2/K = J/kg/K == kJ/t/K
**
